[VALIDATOR STDOUT]
Checking plan: /home/jfan5/Safety-gen/runs/benchmark/optic/ferry_20260201_171235/ferry/optic_results/ferry-l49-c25-s49001.plan
Plan executed successfully - checking goal
Plan valid
Final value: 127 

Successful plans:
Value: 127
 /home/jfan5/Safety-gen/runs/benchmark/optic/ferry_20260201_171235/ferry/optic_results/ferry-l49-c25-s49001.plan 127
